certificates/rado_a13_c204_N36.cnf
c Rad2 upper bound instance: x1 + 13*x2 - x3 = 204, interval [1,36]
p cnf 36 198
1 5 16 0
-1 -5 -16 0
1 17 18 0
-1 -17 -18 0
1 18 31 0
-1 -18 -31 0
2 6 16 0
-2 -6 -16 0
2 17 19 0
-2 -17 -19 0
2 18 32 0
-2 -18 -32 0
3 7 16 0
-3 -7 -16 0
3 17 20 0
-3 -17 -20 0
3 18 33 0
-3 -18 -33 0
4 8 16 0
-4 -8 -16 0
4 17 21 0
-4 -17 -21 0
4 18 34 0
-4 -18 -34 0
5 9 16 0
-5 -9 -16 0
5 17 22 0
-5 -17 -22 0
5 18 35 0
-5 -18 -35 0
6 10 16 0
-6 -10 -16 0
6 17 23 0
-6 -17 -23 0
6 18 36 0
-6 -18 -36 0
7 11 16 0
-7 -11 -16 0
7 17 24 0
-7 -17 -24 0
8 12 16 0
-8 -12 -16 0
8 17 25 0
-8 -17 -25 0
9 13 16 0
-9 -13 -16 0
9 17 26 0
-9 -17 -26 0
1 10 15 0
-1 -10 -15 0
10 14 16 0
-10 -14 -16 0
10 17 27 0
-10 -17 -27 0
2 11 15 0
-2 -11 -15 0
11 15 16 0
-11 -15 -16 0
11 17 28 0
-11 -17 -28 0
3 12 15 0
-3 -12 -15 0
12 16 0
-12 -16 0
12 17 29 0
-12 -17 -29 0
4 13 15 0
-4 -13 -15 0
13 16 17 0
-13 -16 -17 0
13 17 30 0
-13 -17 -30 0
5 14 15 0
-5 -14 -15 0
14 16 18 0
-14 -16 -18 0
14 17 31 0
-14 -17 -31 0
6 15 0
-6 -15 0
15 16 19 0
-15 -16 -19 0
15 17 32 0
-15 -17 -32 0
7 15 16 0
-7 -15 -16 0
16 20 0
-16 -20 0
16 17 33 0
-16 -17 -33 0
8 15 17 0
-8 -15 -17 0
16 17 21 0
-16 -17 -21 0
17 34 0
-17 -34 0
9 15 18 0
-9 -15 -18 0
16 18 22 0
-16 -18 -22 0
17 18 35 0
-17 -18 -35 0
10 15 19 0
-10 -15 -19 0
16 19 23 0
-16 -19 -23 0
17 19 36 0
-17 -19 -36 0
11 15 20 0
-11 -15 -20 0
16 20 24 0
-16 -20 -24 0
12 15 21 0
-12 -15 -21 0
16 21 25 0
-16 -21 -25 0
13 15 22 0
-13 -15 -22 0
16 22 26 0
-16 -22 -26 0
1 14 23 0
-1 -14 -23 0
14 15 23 0
-14 -15 -23 0
16 23 27 0
-16 -23 -27 0
2 14 24 0
-2 -14 -24 0
15 24 0
-15 -24 0
16 24 28 0
-16 -24 -28 0
3 14 25 0
-3 -14 -25 0
15 16 25 0
-15 -16 -25 0
16 25 29 0
-16 -25 -29 0
4 14 26 0
-4 -14 -26 0
15 17 26 0
-15 -17 -26 0
16 26 30 0
-16 -26 -30 0
5 14 27 0
-5 -14 -27 0
15 18 27 0
-15 -18 -27 0
16 27 31 0
-16 -27 -31 0
6 14 28 0
-6 -14 -28 0
15 19 28 0
-15 -19 -28 0
16 28 32 0
-16 -28 -32 0
7 14 29 0
-7 -14 -29 0
15 20 29 0
-15 -20 -29 0
16 29 33 0
-16 -29 -33 0
8 14 30 0
-8 -14 -30 0
15 21 30 0
-15 -21 -30 0
16 30 34 0
-16 -30 -34 0
9 14 31 0
-9 -14 -31 0
15 22 31 0
-15 -22 -31 0
16 31 35 0
-16 -31 -35 0
10 14 32 0
-10 -14 -32 0
15 23 32 0
-15 -23 -32 0
16 32 36 0
-16 -32 -36 0
11 14 33 0
-11 -14 -33 0
15 24 33 0
-15 -24 -33 0
12 14 34 0
-12 -14 -34 0
15 25 34 0
-15 -25 -34 0
13 14 35 0
-13 -14 -35 0
15 26 35 0
-15 -26 -35 0
1 13 36 0
-1 -13 -36 0
14 36 0
-14 -36 0
15 27 36 0
-15 -27 -36 0
