certificates/rado_a13_c204_N36.drat
17 -35 -36 0
-35 -36 0
d 17 -35 -36 0
34 -13 0
-36 0
14 0
-34 35 0
35 0
-13 0
1 0
-23 0
34 0
-17 0
-12 0
19 0
16 0
30 0
6 0
29 0
-15 0
-20 0
-10 0
-18 0
-31 0
0
